MAXIMIZE

t_1 - W

SUBJECT TO

t_1 - W <= -1.000000
t_2 - W <= -10.000000
t_3 - W <= -5.000000

t_2 - t_1 - 17.000000 s_1_2 >= 18.000000
t_3 - t_1 - 17.000000 s_1_3 >= 18.000000
t_1 - t_2 - 17.000000 s_2_1 >= 27.000000

BOUNDS

W >= 0

t_1 >= 0
t_2 >= 0
t_3 >= 0

1 <= p_1 <= 2
1 <= p_2 <= 2

VARIABLES

W

t_1
t_2
t_3

s_1_1
s_1_2
s_1_3
s_2_1
s_2_2

p_1
p_2

END
